
  32    1
  10

   0   0   7 2 3 6 7 8 11 13 
   4   1   2 9 4 
   1   5   3 19 15 5 
  10   2   6 19 17 16 15 12 10 
   1   3   5 17 16 14 12 10 
   8   3   6 31 30 19 17 16 14 
   2   1   4 30 17 16 14 
   5   4   8 31 30 29 22 20 19 18 17 
   9   4   5 31 30 28 21 14 
   7   7   9 31 30 28 27 23 22 21 20 18 
   4   4   7 30 29 22 21 20 18 17 
   5   2   7 29 27 25 22 21 20 18 
   6   4   7 29 28 27 25 22 21 18 
   5   7   6 29 27 25 22 20 18 
   3   2   6 30 28 27 23 21 20 
   7   3   5 27 23 21 20 18 
   4   4   3 28 26 23 
   1   2   2 26 24 
   1   5   2 27 24 
   6   3   1 24 
   6   8   1 24 
   3   4   1 24 
   9   8   1 25 
   2   2   1 32
   4   3   1 32
  10   3   1 32
   4   8   1 32
   5   5   1 32
   3   4   1 32
   1   3   1 32
   4   6   1 32
   0   0   0 
